
Gurobi 7.0.2 (linux64, Matlab) logging started Sun Sep  2 08:56:42 2018


Gurobi 7.0.2 (linux64) logging started Sun Sep  2 08:56:42 2018

Optimize a model with 14098 rows, 72546 columns and 281906 nonzeros
Coefficient statistics:
  Matrix range     [1e+00, 1e+00]
  Objective range  [2e+00, 1e+02]
  Bounds range     [1e+00, 1e+00]
  RHS range        [1e+00, 1e+00]
Iteration    Objective       Primal Inf.    Dual Inf.      Time
       0    2.1816033e+03   0.000000e+00   0.000000e+00      0s

Solved in 0 iterations and 0.23 seconds
Optimal objective  2.181603322e+03
